0,81
0,72
0,67
0,64
0,60
0,57
0,54
0,50
0,50
0,49
0,48
0,46
0,47
0,46
0,44
0,44
0,43
0,43
0,43
0,43
0,44
0,44
0,44
0,44
0,44
0,44
0,44
0,44
0,44
0,45
0,45
0,45
0,45
0,45
0,45
0,44
0,43
0,43
0,43
0,44
0,44
0,43
0,44
0,43
0,43
0,43
0,44
0,43
0,44
0,43
0,44
0,45
0,44
0,43
0,43
0,43
0,44
0,42
0,43
0,42
0,43
0,42
0,43
0,43
0,42
0,43
0,43
0,43
0,42
0,41
0,42
0,42
0,42
0,42
0,42
0,42
0,41
0,43
0,42
0,42
0,43
0,41
0,43
0,43
0,43
0,42
0,42
0,43
0,43
0,43
0,42
0,41
0,41
0,42
0,42
0,42
0,41
0,40
0,42
0,42
0,56
0,50
0,50
0,48
0,48
0,47
0,46
0,46
0,44
0,44
0,44
0,43
0,44
0,43
0,43
0,43
0,43
0,42
0,43
0,44
0,44
0,44
0,44
0,44
0,43
0,42
0,43
0,43
0,42
0,44
0,44
0,43
0,44
0,43
0,42
0,42
0,41
0,42
0,43
0,42
0,41
0,42
0,42
0,41
0,43
0,42
0,42
0,42
0,42
0,42
0,43
0,43
0,42
0,41
0,43
0,42
0,42
0,41
0,41
0,42
0,42
0,42
0,41
0,41
0,41
0,41
0,42
0,40
0,41
0,41
0,41
0,41
0,42
0,42
0,43
0,42
0,42
0,41
0,43
0,42
0,43
0,41
0,43
0,42
0,42
0,42
0,43
0,43
0,44
0,42
0,43
0,43
0,44
0,43
0,44
0,44
0,43
0,43
0,42
0,43
0,56
0,52
0,49
0,47
0,44
0,43
0,45
0,43
0,43
0,44
0,43
0,43
0,44
0,43
0,43
0,42
0,43
0,43
0,44
0,43
0,42
0,43
0,43
0,43
0,42
0,43
0,42
0,42
0,43
0,43
0,44
0,43
0,42
0,42
0,44
0,42
0,42
0,42
0,42
0,43
0,43
0,42
0,43
0,42
0,43
0,41
0,41
0,40
0,40
0,41
0,41
0,41
0,41
0,41
0,42
0,42
0,42
0,42
0,42
0,43
0,41
0,43
0,41
0,42
0,41
0,43
0,41
0,41
0,41
0,40
0,40
0,42
0,41
0,41
0,41
0,40
0,41
0,41
0,41
0,42
0,41
0,42
0,43
0,44
0,43
0,43
0,44
0,43
0,43
0,43
0,43
0,43
0,43
0,44
0,44
0,44
0,43
0,44
0,44
0,44
0,54
0,50
0,50
0,47
0,46
0,44
0,45
0,45
0,43
0,43
0,43
0,43
0,43
0,42
0,42
0,41
0,43
0,42
0,43
0,42
0,43
0,42
0,42
0,41
0,41
0,41
0,41
0,42
0,43
0,42
0,43
0,42
0,42
0,43
0,43
0,43
0,44
0,44
0,42
0,43
0,43
0,42
0,43
0,43
0,42
0,41
0,42
0,43
0,40
0,41
0,42
0,43
0,43
0,43
0,43
0,42
0,42
0,42
0,42
0,41
0,41
0,42
0,42
0,40
0,40
0,41
0,41
0,41
0,41
0,41
0,41
0,43
0,42
0,40
0,41
0,41
0,41
0,43
0,43
0,41
0,42
0,43
0,42
0,42
0,43
0,43
0,43
0,43
0,42
0,41
0,42
0,40
0,41
0,42
0,41
0,42
0,42
0,42
0,42
0,40
0,54
0,54
0,53
0,50
0,48
0,47
0,46
0,46
0,45
0,46
0,45
0,46
0,46
0,44
0,44
0,44
0,44
0,44
0,44
0,43
0,42
0,43
0,43
0,42
0,43
0,44
0,44
0,45
0,45
0,44
0,44
0,43
0,43
0,44
0,43
0,43
0,44
0,43
0,42
0,42
0,43
0,43
0,43
0,44
0,43
0,44
0,44
0,44
0,42
0,43
0,42
0,42
0,43
0,44
0,43
0,44
0,45
0,44
0,44
0,45
0,42
0,43
0,42
0,43
0,44
0,43
0,44
0,44
0,44
0,43
0,43
0,44
0,43
0,43
0,43
0,43
0,43
0,43
0,44
0,44
0,44
0,44
0,44
0,45
0,44
0,45
0,45
0,44
0,45
0,45
0,44
0,44
0,44
0,43
0,44
0,43
0,43
0,44
0,44
0,43
0,58
0,55
0,54
0,51
0,50
0,49
0,47
0,48
0,49
0,48
0,46
0,46
0,46
0,45
0,46
0,47
0,45
0,44
0,44
0,46
0,44
0,45
0,44
0,44
0,45
0,45
0,46
0,45
0,47
0,48
0,46
0,45
0,44
0,45
0,45
0,44
0,45
0,45
0,44
0,44
0,45
0,44
0,44
0,43
0,44
0,44
0,45
0,44
0,43
0,44
0,44
0,45
0,44
0,44
0,43
0,43
0,43
0,42
0,42
0,44
0,42
0,42
0,43
0,43
0,44
0,42
0,44
0,43
0,44
0,44
0,42
0,42
0,43
0,43
0,44
0,44
0,44
0,44
0,44
0,43
0,44
0,44
0,43
0,43
0,43
0,43
0,44
0,43
0,43
0,44
0,45
0,45
0,45
0,45
0,45
0,43
0,43
0,42
0,42
0,42
0,56
0,52
0,51
0,50
0,48
0,45
0,46
0,45
0,45
0,45
0,46
0,46
0,46
0,45
0,44
0,44
0,44
0,44
0,45
0,45
0,45
0,45
0,46
0,45
0,44
0,44
0,45
0,45
0,46
0,46
0,46
0,46
0,46
0,46
0,45
0,45
0,46
0,45
0,44
0,45
0,44
0,43
0,43
0,43
0,43
0,43
0,44
0,42
0,43
0,42
0,44
0,42
0,44
0,43
0,42
0,41
0,42
0,42
0,43
0,43
0,43
0,42
0,43
0,43
0,44
0,42
0,44
0,44
0,44
0,43
0,44
0,43
0,43
0,44
0,45
0,45
0,44
0,43
0,43
0,43
0,43
0,44
0,42
0,42
0,43
0,44
0,44
0,46
0,45
0,46
0,45
0,42
0,45
0,45
0,44
0,45
0,45
0,44
0,42
0,42
0,55
0,52
0,51
0,48
0,48
0,46
0,46
0,46
0,46
0,44
0,44
0,44
0,44
0,44
0,43
0,43
0,44
0,44
0,44
0,41
0,43
0,41
0,43
0,43
0,43
0,42
0,43
0,42
0,42
0,42
0,41
0,42
0,42
0,44
0,43
0,45
0,43
0,44
0,43
0,42
0,42
0,43
0,43
0,43
0,43
0,44
0,43
0,43
0,42
0,42
0,43
0,42
0,44
0,43
0,43
0,42
0,43
0,43
0,43
0,44
0,43
0,44
0,44
0,43
0,44
0,44
0,44
0,42
0,43
0,42
0,42
0,43
0,43
0,42
0,42
0,43
0,43
0,43
0,42
0,42
0,41
0,42
0,41
0,42
0,41
0,42
0,40
0,41
0,42
0,42
0,42
0,42
0,42
0,41
0,42
0,42
0,42
0,42
0,44
0,42
0,55
0,57
0,54
0,49
0,49
0,47
0,46
0,45
0,45
0,44
0,45
0,45
0,45
0,44
0,45
0,45
0,44
0,45
0,45
0,45
0,44
0,44
0,45
0,43
0,43
0,44
0,44
0,43
0,44
0,43
0,44
0,44
0,44
0,44
0,44
0,44
0,44
0,43
0,43
0,43
0,44
0,43
0,43
0,43
0,44
0,44
0,43
0,43
0,44
0,43
0,43
0,44
0,44
0,43
0,42
0,42
0,43
0,44
0,42
0,43
0,43
0,43
0,44
0,44
0,45
0,44
0,43
0,45
0,44
0,45
0,45
0,44
0,44
0,44
0,43
0,44
0,45
0,44
0,44
0,43
0,43
0,44
0,45
0,44
0,44
0,44
0,44
0,44
0,44
0,43
0,44
0,43
0,42
0,43
0,44
0,44
0,43
0,43
0,42
0,43
0,57
0,53
0,52
0,48
0,47
0,47
0,45
0,46
0,46
0,44
0,44
0,45
0,45
0,44
0,45
0,44
0,42
0,44
0,43
0,44
0,45
0,45
0,45
0,44
0,44
0,44
0,45
0,45
0,44
0,45
0,44
0,44
0,44
0,44
0,44
0,45
0,45
0,46
0,45
0,45
0,45
0,45
0,45
0,46
0,46
0,45
0,45
0,46
0,45
0,46
0,46
0,46
0,45
0,44
0,45
0,46
0,46
0,47
0,46
0,46
0,45
0,45
0,45
0,46
0,46
0,45
0,45
0,46
0,45
0,46
0,46
0,46
0,46
0,44
0,46
0,45
0,45
0,46
0,44
0,44
0,44
0,45
0,46
0,45
0,45
0,45
0,44
0,44
0,46
0,45
0,46
0,44
0,44
0,46
0,45
0,43
0,43
0,43
0,45
0,44

Statistical results
0,52
0,47
0,42
0,44
0,43
0,43
0,44
0,45
0,46
0,42
0,51
0,49
0,51
0,41
0,40
0,40
0,42
0,48
0,44
0,43
0,44
0,42
0,39
0,40
0,41
0,42
0,35
0,41
0,47
0,49
Mean 0,439068	 	Std Dev 0,039013 